c random formula
p cnf 10 35
10 5 -3 0
-1 8 -5 0
2 -5 -10 0
4 10 -2 0
-8 5 3 0
-1 -5 -6 0
-10 4 2 0
8 -10 7 0
3 7 -1 0
5 7 10 0
-10 -8 7 0
-2 -9 -8 0
-6 4 3 0
8 6 -2 0
-10 3 -2 0
-5 -4 6 0
-4 5 -6 0
-5 -6 9 0
-2 -6 -8 0
-3 -8 6 0
9 -3 -10 0
10 2 -9 0
2 -6 -9 0
-2 -1 5 0
2 5 -1 0
7 2 8 0
4 -7 1 0
-7 -10 8 0
-5 -6 7 0
10 -6 9 0
9 -8 -2 0
-5 4 -10 0
-5 4 3 0
5 7 -3 0
6 -9 5 0
